牛客/2019牛客暑期多校训练营/数据/9_D_Knapsack Cryptosystem/3.in
36 1433356098525526
96563024183896 93801682440181 85517657209036 63426923259316 19245455359876 181912807700674 5102999256785 7192846231468 41915173053957 5757345668733 155599508908878 55636139987112 297840791766 133869794361387 119051783092769 58159665924133 161198923823468 19492786527884 11782846696837 58586856675842 87741915644758 73046573396461 141059007356310 183146084211419 74307491732900 68053756283056 77860930454815 1532084958396 27844118235851 59845858841229 135752259192909 62400882760983 2723712576448 167800312774757 59658780898317 86940296503958
